33 80 129 174 49 0 155 199 125 168 161 31 104 96 166 93 16 89 139 138 97 169 48 69 152 88 10 167 109 22 41 172 184 21 192 110 102 57 127 28 190 196 198 107 128 35 175 158 74 66 131 6 170 60 111 73 197 194 100 189 120 45 145 124 108 133 68 157 183 106 95 85 159 64 173 156 193 79 75 126 160 134 71 56 30 77 98 44 165 32 67 13 186 188 142 151 15 62 153 53 90 76 42 63 149 58 84 17 5 39 82 2 115 101 8 9 141 19 24 113 163 81 182 103 105 132 114 11 27 46 181 20 55 150 94 147 130 162 25 86 112 54 177 116 91 140 144 135 18 191 1 47 143 29 99 50 118 34 36 195 61 117 4 176 123 52 59 43 154 3 92 122 121 70 187 38 72 14 171 136 83 40 164 146 78 180 12 178 87 23 26 179 119 137 51 7 65 37 185 148